# Example page reference trace
# These are optional comment lines
1 25
1 45
0 18
1 17
1 45
0 62
1 3
0 12
0 54
0 6
0 9
0 40
1 3
0 12
0 54
0 6
0 9
0 40
1 12
1 41
1 16
0 17
1 10
0 47
